
<<< setup

Tried aggregator 1 time.
MIP Presolve eliminated 3550 rows and 50 columns.
MIP Presolve modified 24911 coefficients.
Reduced MIP has 108000 rows, 106450 columns, and 417350 nonzeros.
Reduced MIP has 1450 binaries, 0 generals, 0 SOSs, and 0 indicators.
Presolve time = 0,87 sec. (153,43 ticks)
Probing changed sense of 1450 constraints.
Probing time = 3,23 sec. (61,90 ticks)
Tried aggregator 1 time.
MIP Presolve eliminated 1450 rows and 1421 columns.
Reduced MIP has 106550 rows, 105029 columns, and 414450 nonzeros.
Reduced MIP has 29 binaries, 0 generals, 0 SOSs, and 0 indicators.
Presolve time = 1,25 sec. (199,92 ticks)
Probing time = 0,16 sec. (6,09 ticks)
MIP emphasis: balance optimality and feasibility.
MIP search method: dynamic search.
Parallel mode: deterministic, using up to 20 threads.
Root relaxation solution time = 31,47 sec. (4408,68 ticks)

        Nodes                                         Cuts/
   Node  Left     Objective  IInf  Best Integer    Best Bound    ItCnt     Gap

*     0+    0                          614,1669       23,7265            96,14%
      0     0      353,2653    18      614,1669      353,2653       91   42,48%
      0     0      395,8157     6      614,1669    Cuts: 3658    18711   35,55%
*     0+    0                          428,9707      395,8157             7,73%
*     0+    0                          397,9510      395,8157             0,54%
*     0     0      integral     0      397,9510                  19955    0,00%
Elapsed time = 384,15 sec. (84443,71 ticks, tree = 0,00 MB, solutions = 3)

Implied bound cuts applied:  1084
Flow cuts applied:  104
Mixed integer rounding cuts applied:  1195
Gomory fractional cuts applied:  2

Root node processing (before b&c):
  Real time             =  384,18 sec. (84448,80 ticks)
Parallel b&c, 20 threads:
  Real time             =    0,00 sec. (0,00 ticks)
  Sync time (average)   =    0,00 sec.
  Wait time (average)   =    0,00 sec.
                          ------------
Total (root+branch&cut) =  384,18 sec. (84448,80 ticks)
-- Objective = 397.951
-- Solving time ~= 386558ms
main returns 0

<<< main


<<< done

